70
2394 945
2594 1026
2753 2806
3790 335
1506 979
1014 631
2657 653
3931 3148
183 3406
306 254
2403 3782
1913 1406
3585 1583
2671 1091
2078 3958
644 684
2827 3095
3342 871
1584 3304
1213 1042
1442 825
3826 2144
2680 2457
1484 2782
250 2973
770 3670
3899 3069
312 2388
9 2943
2316 2599
2018 761
2800 3402
938 3857
541 196
858 3046
3941 1325
3867 3861
1706 2834
2643 949
526 2522
415 1604
1962 1449
674 3877
3587 3173
797 3274
2554 728
3200 1903
1122 3606
1727 2887
183 3679
584 667
269 3879
2420 3823
3335 2388
1213 1703
1290 1096
2383 1611
1905 3711
97 1383
1026 251
1446 2582
480 1150
2495 2656
451 1271
371 385
1093 3810
98 1420
2782 2217
3382 528
1458 1999